DIMENSION: 14
EDGE_WEIGHT_TYPE: EXPLICIT
EDGE_WEIGHT_FORMAT: FULL_MATRIX
EDGE_WEIGHT_SECTION:
32767 32767 92 32767 57 32767 32767 32767 19 32767 32767 32767 32767 32767 
32767 32767 32767 4 32767 8 75 32767 32767 32767 32767 32767 20 32767 
92 32767 32767 63 32767 32767 32767 32767 84 44 32767 32767 32767 32767 
32767 4 63 32767 32767 32767 32767 90 32767 32767 32767 32767 32767 32767 
57 32767 32767 32767 32767 74 65 63 32767 32767 32767 32767 32767 32767 
32767 8 32767 32767 74 32767 32767 32767 32767 32767 12 32767 32767 32767 
32767 75 32767 32767 65 32767 32767 32767 32767 32767 32767 32767 12 75 
32767 32767 32767 90 63 32767 32767 32767 9 98 32767 32767 42 32767 
19 32767 84 32767 32767 32767 32767 9 32767 32767 32767 32767 32767 32767 
32767 32767 44 32767 32767 32767 32767 98 32767 32767 57 32767 68 32767 
32767 32767 32767 32767 32767 12 32767 32767 32767 57 32767 32767 67 32767 
32767 32767 32767 32767 32767 32767 32767 32767 32767 32767 32767 32767 32767 32767 
32767 20 32767 32767 32767 32767 12 42 32767 68 67 32767 32767 77 
32767 32767 32767 32767 32767 32767 75 32767 32767 32767 32767 32767 77 32767 
EOF